73
120
96	3
95	5
94	1
93	9
92	5
91	6
90	2
89	7
88	3
87	1
86	4
85	6
84	7
83	2
82	4
81	5
80	2
79	4
78	5
77	1
76	6
75	1
74	5
73	3
72	6
71	6
70	4
69	1
68	6
67	3
66	5
65	6
64	4
63	6
62	5
61	8
60	5
59	6
58	1
57	4
56	5
55	3
54	2
53	6
52	1
51	4
50	4
49	1
48	2
47	3
46	2
45	6
44	4
43	7
42	4
41	4
40	2
39	5
38	1
37	6
36	4
35	2
34	4
33	2
32	7
31	5
30	6
29	5
28	4
27	3
26	2
25	7
24	4
